c instance by G2
c solution = 1011110100111
c Known solution cost is 402 
p cnf 13 30
w 53 27 26 30 85 1 3 3 28 77 43 9 17
-12 9 -2 0
-4 10 11 0
3 -8 -11 0
10 3 11 0
-8 9 1 0
-6 -13 4 0
12 3 5 0
-5 8 -13 0
-2 13 -12 0
-4 1 -11 0
5 2 -4 0
12 -8 -6 0
7 5 -4 0
7 12 2 0
5 -6 -11 0
-6 9 12 0
-9 13 6 0
13 -1 11 0
-8 4 -12 0
-13 -3 -10 0
-7 9 -11 0
4 6 -11 0
12 -10 -8 0
-6 -13 -9 0
9 2 11 0
-5 8 -4 0
11 4 3 0
-2 3 6 0
-5 -4 13 0
-3 -1 6 0
